32      4       
18      15      12      16      
0       0       0       0       0       1       2       
10      18      15      12      16      1       3       
2       18      15      11      16      1       4       
8       18      15      12      16      2       5       8       
1       12      15      12      16      1       6       
10      18      15      12      16      1       7       
5       18      11      12      16      1       9       
1       18      15      8       16      1       9       
9       14      15      8       16      2       10      15      
8       3       12      12      8       1       11      
4       18      15      12      9       2       12      25      
3       11      15      7       16      1       13      
3       17      15      12      15      1       14      
5       16      15      12      4       1       16      
1       18      15      12      16      1       16      
9       18      15      12      7       1       17      
3       18      15      10      16      2       18      23      
1       18      15      12      16      2       19      20      
9       18      7       12      16      1       21      
6       18      15      5       16      1       21      
9       18      8       12      16      1       22      
7       18      15      12      16      1       24      
5       16      15      12      16      1       24      
5       18      15      12      16      2       26      27      
8       18      15      12      16      2       26      27      
9       18      10      6       9       1       28      
3       18      11      6       16      1       28      
6       9       1       12      16      1       29      
4       18      15      12      16      1       30      
7       10      15      11      16      1       31      
5       18      15      12      12      1       32      
0       0       0       0       0       0       
